\* subpr *\
Minimize
cost: 10 x0000 + 11 x0001 + 12 x0002 + 13 x0003 + 14 x0004 + 15 x0005
 + 16 x0006 + 17 x0007 + 22 x0008 + 24 x0009 + 26 x0010 + 28 x0011 + 30 x0012
 + 32 x0013 + 34 x0014 + 36 x0015 - 34 x0016 - 32 x0017 - 30 x0018 - 27 x0019
 - 24 x0020 - 21 x0021 - 18 x0022 - 15 x0023
Subject To
c0: 28 x0016 + 27 x0017 + 26 x0018 + 25 x0019 + 24 x0020 + 23 x0021 + 22 x0022
 + 21 x0023 <= 70
Binaries
x0000
x0001
x0002
x0003
x0004
x0005
x0006
x0007
x0008
x0009
x0010
x0011
x0012
x0013
x0014
x0015
x0016
x0017
x0018
x0019
x0020
x0021
x0022
x0023
End
